qbf_easy_train/easy_4555_SAT.qdimacs
p cnf 24 55
a 2 6 7 0
e 1 3 4 5 8 9 10 11 12 13 14 15 16 17 18 19 20 21 22 23 24 0
-2 -3 0
2 -3 0
1 -3 -4 0
-1 3 -4 0
1 3 4 0
-1 -3 4 0
-8 6 0
-8 -7 0
-6 7 8 0
-9 -5 0
-9 8 0
5 -8 9 0
10 4 0
10 -9 0
-4 9 -10 0
-11 -9 -12 0
11 9 -12 0
-11 9 12 0
11 -9 12 0
-13 -7 0
-13 6 0
7 -6 13 0
14 -12 0
14 -13 0
12 13 -14 0
-16 -6 0
-16 15 0
6 -15 16 0
-17 14 0
-17 16 0
-14 -16 17 0
10 -17 -18 0
-10 17 -18 0
10 17 18 0
-10 -17 18 0
-20 19 0
-20 7 0
-19 -7 20 0
21 -2 0
21 -5 0
2 5 -21 0
22 21 0
22 -21 0
23 20 0
23 22 0
-20 -22 -23 0
24 18 0
24 23 0
-18 -23 -24 0
20 2 11 0
4 21 18 22 -23 5 16 0
-22 -23 11 0
5 -13 14 16 -19 0
14 5 -17 16 11 0
24 0
