sat_easy_train/easy_4555_SAT.dimacs
p cnf 101 321
-3 1 0
-3 -2 0
-1 2 3 0
-5 -3 0
-5 4 0
3 -4 5 0
-6 -7 -8 0
6 7 -8 0
-6 7 8 0
6 -7 8 0
-8 -9 -10 0
8 9 -10 0
-8 9 10 0
8 -9 10 0
11 10 0
11 1 0
-10 -1 -11 0
-12 -6 0
-12 -9 0
6 9 12 0
-13 12 0
-13 7 0
-12 -7 13 0
12 -13 -14 0
-12 13 -14 0
12 13 14 0
-12 -13 14 0
-15 -14 0
-15 4 0
14 -4 15 0
-11 -15 -16 0
11 15 -16 0
-11 15 16 0
11 -15 16 0
18 -16 0
18 17 0
16 -17 -18 0
19 5 0
19 -18 0
-5 18 -19 0
20 -21 -22 0
-20 21 -22 0
20 21 22 0
-20 -21 22 0
-23 22 0
-23 10 0
-22 -10 23 0
-25 -26 -27 0
25 26 -27 0
-25 26 27 0
25 -26 27 0
24 -27 -28 0
-24 27 -28 0
24 27 28 0
-24 -27 28 0
-28 -15 -29 0
28 15 -29 0
-28 15 29 0
28 -15 29 0
-23 -29 -30 0
23 29 -30 0
-23 29 30 0
23 -29 30 0
19 30 -31 0
-19 -30 -31 0
19 -30 31 0
-19 30 31 0
-7 -1 -32 0
7 1 -32 0
-7 1 32 0
7 -1 32 0
33 -13 0
33 22 0
13 -22 -33 0
-20 6 -34 0
20 -6 -34 0
-20 -6 34 0
20 6 34 0
-35 -6 0
-35 -17 0
6 17 35 0
36 35 0
36 -4 0
-35 4 -36 0
37 34 0
37 36 0
-34 -36 -37 0
-38 33 0
-38 -37 0
-33 37 38 0
-39 -4 0
-39 -6 0
4 6 39 0
41 -39 0
41 40 0
39 -40 -41 0
-42 -38 0
-42 -41 0
38 41 42 0
-43 39 0
-43 -13 0
-39 13 43 0
-45 -20 0
-45 -44 0
20 44 45 0
46 7 0
46 -4 0
-7 4 -46 0
-47 3 0
-47 46 0
-3 -46 47 0
-48 35 0
-48 -20 0
-35 20 48 0
-49 -47 0
-49 48 0
47 -48 49 0
50 -45 0
50 -49 0
45 49 -50 0
51 43 0
51 -50 0
-43 50 -51 0
-52 42 0
-52 51 0
-42 -51 52 0
-54 -44 0
-54 -53 0
44 53 54 0
55 6 0
55 -54 0
-6 54 -55 0
55 8 -56 0
-55 -8 -56 0
55 -8 56 0
-55 8 56 0
57 52 0
57 -56 0
-52 56 -57 0
-58 11 -59 0
58 -11 -59 0
-58 -11 59 0
58 11 59 0
-60 -57 0
-60 59 0
57 -59 60 0
61 -32 0
61 60 0
32 -60 -61 0
-1 -26 -62 0
1 26 -62 0
-1 26 62 0
1 -26 62 0
63 13 0
63 -62 0
-13 62 -63 0
64 14 0
64 24 0
-14 -24 -64 0
-65 63 0
-65 64 0
-63 -64 65 0
-66 -46 0
-66 -4 0
46 4 66 0
-65 -66 -67 0
65 66 -67 0
-65 66 67 0
65 -66 67 0
62 12 -68 0
-62 -12 -68 0
62 -12 68 0
-62 12 68 0
-69 -27 0
-69 55 0
27 -55 69 0
70 -26 0
70 -27 0
26 27 -70 0
71 69 0
71 -70 0
-69 70 -71 0
72 68 0
72 -71 0
-68 71 -72 0
-73 -25 0
-73 -64 0
25 64 73 0
-74 -53 0
-74 17 0
53 -17 74 0
75 -13 0
75 -21 0
13 21 -75 0
-14 75 -76 0
14 -75 -76 0
-14 -75 76 0
14 75 76 0
77 25 0
77 44 0
-25 -44 -77 0
-78 64 0
-78 17 0
-64 -17 78 0
79 -77 0
79 78 0
77 -78 -79 0
-80 -76 0
-80 -79 0
76 79 80 0
-74 80 -81 0
74 -80 -81 0
-74 -80 81 0
74 80 81 0
-82 -73 0
-82 81 0
73 -81 82 0
83 -72 0
83 82 0
72 -82 -83 0
-22 27 -84 0
22 -27 -84 0
-22 -27 84 0
22 27 84 0
-10 12 -85 0
10 -12 -85 0
-10 -12 85 0
10 12 85 0
84 85 -86 0
-84 -85 -86 0
84 -85 86 0
-84 85 86 0
87 -28 0
87 34 0
28 -34 -87 0
88 -7 0
88 -87 0
7 87 -88 0
-89 27 0
-89 9 0
-27 -9 89 0
-90 -88 0
-90 -89 0
88 89 90 0
91 -86 0
91 90 0
86 -90 -91 0
-92 83 0
-92 -91 0
-83 91 92 0
93 -67 0
93 -92 0
67 92 -93 0
-94 -61 0
-94 93 0
61 -93 94 0
-13 -27 -95 0
13 27 -95 0
-13 27 95 0
13 -27 95 0
-96 -26 0
-96 46 0
26 -46 96 0
97 -40 0
97 -6 0
40 6 -97 0
-98 -96 0
-98 97 0
96 -97 98 0
99 95 0
99 98 0
-95 -98 -99 0
100 -94 0
100 -99 0
94 99 -100 0
-101 31 0
-101 -100 0
-31 100 101 0
-73 -14 -56 0
21 -2 -50 1 94 84 0
2 33 65 86 62 0
-28 -39 5 0
26 40 72 0
-47 -86 21 -81 0
8 27 0
64 -4 32 -23 -35 0
76 -97 -36 0
61 70 0
-30 65 -33 0
77 88 -82 -64 4 0
43 56 61 0
-80 -100 -32 0
-93 101 0
-83 -84 -79 -31 -96 0
31 92 -80 72 0
70 25 0
35 23 -10 13 31 19 0
83 19 -77 0
-37 61 -22 -48 -84 -47 0
-91 -87 -50 -27 0
42 54 0
-92 87 73 47 -72 8 0
-90 55 -11 0
-53 -94 0
100 -4 -67 -30 92 0
-35 72 -65 0
-82 67 -95 46 -50 0
-44 -30 -1 -83 0
-61 -67 51 -48 0
44 -7 62 20 -99 0
-6 47 70 0
-42 -88 0
62 25 0
99 -55 24 -2 -7 0
84 83 38 65 0
38 -23 -74 0
32 -14 -19 0
95 -70 90 -47 0
9 -74 0
-70 32 0
101 0
